param n := 120;
param c := 3000
param : V : p w :=
   0	 468	 458
   1	 262	 252
   2	 300	 290
   3	 507	 497
   4	 260	 250
   5	 263	 253
   6	 456	 446
   7	 286	 276
   8	 288	 278
   9	 397	 387
  10	 284	 274
  11	 349	 339
  12	 472	 462
  13	 278	 268
  14	 280	 270
  15	 482	 472
  16	 268	 258
  17	 280	 270
  18	 387	 377
  19	 286	 276
  20	 357	 347
  21	 494	 484
  22	 263	 253
  23	 273	 263
  24	 500	 490
  25	 262	 252
  26	 268	 258
  27	 424	 414
  28	 260	 250
  29	 346	 336
  30	 503	 493
  31	 263	 253
  32	 264	 254
  33	 480	 470
  34	 267	 257
  35	 283	 273
  36	 413	 403
  37	 272	 262
  38	 345	 335
  39	 443	 433
  40	 283	 273
  41	 304	 294
  42	 385	 375
  43	 286	 276
  44	 359	 349
  45	 432	 422
  46	 286	 276
  47	 312	 302
  48	 456	 446
  49	 284	 274
  50	 290	 280
  51	 362	 352
  52	 328	 318
  53	 340	 330
  54	 412	 402
  55	 279	 269
  56	 339	 329
  57	 446	 436
  58	 264	 254
  59	 320	 310
  60	 367	 357
  61	 278	 268
  62	 385	 375
  63	 420	 410
  64	 272	 262
  65	 338	 328
  66	 362	 352
  67	 285	 275
  68	 383	 373
  69	 433	 423
  70	 272	 262
  71	 325	 315
  72	 436	 426
  73	 276	 266
  74	 318	 308
  75	 398	 388
  76	 261	 251
  77	 371	 361
  78	 396	 386
  79	 282	 272
  80	 352	 342
  81	 384	 374
  82	 264	 254
  83	 382	 372
  84	 418	 408
  85	 297	 287
  86	 315	 305
  87	 452	 442
  88	 262	 252
  89	 316	 306
  90	 374	 364
  91	 312	 302
  92	 344	 334
  93	 373	 363
  94	 275	 265
  95	 382	 372
  96	 406	 396
  97	 302	 292
  98	 322	 312
  99	 495	 485
 100	 265	 255
 101	 270	 260
 102	 446	 436
 103	 266	 256
 104	 318	 308
 105	 455	 445
 106	 280	 270
 107	 295	 285
 108	 429	 419
 109	 285	 275
 110	 316	 306
 111	 437	 427
 112	 260	 250
 113	 333	 323
 114	 500	 490
 115	 262	 252
 116	 268	 258
 117	 506	 496
 118	 260	 250
 119	 264	 254
;

set E :=
   0	   6
   0	   7
   0	  10
   0	  13
   0	  14
   0	  16
   0	  20
   0	  21
   0	  22
   0	  23
   0	  25
   0	  26
   0	  30
   0	  33
   0	  34
   0	  36
   0	  39
   0	  41
   0	  42
   0	  46
   0	  49
   0	  50
   0	  52
   0	  53
   0	  54
   0	  56
   0	  57
   0	  58
   0	  59
   0	  61
   0	  63
   0	  66
   0	  67
   0	  71
   0	  76
   0	  78
   0	  79
   0	  80
   0	  82
   0	  83
   0	  84
   0	  86
   0	  87
   0	  90
   0	  92
   0	  94
   0	  96
   0	  97
   0	  99
   0	 102
   0	 103
   0	 104
   0	 105
   0	 107
   0	 110
   0	 111
   0	 115
   0	 116
   0	 117
   0	 118
   1	   3
   1	   8
   1	   9
   1	  10
   1	  11
   1	  13
   1	  15
   1	  18
   1	  20
   1	  22
   1	  25
   1	  30
   1	  31
   1	  32
   1	  33
   1	  34
   1	  35
   1	  36
   1	  37
   1	  38
   1	  42
   1	  43
   1	  44
   1	  45
   1	  48
   1	  52
   1	  53
   1	  55
   1	  57
   1	  58
   1	  60
   1	  62
   1	  64
   1	  67
   1	  68
   1	  70
   1	  71
   1	  72
   1	  80
   1	  81
   1	  82
   1	  83
   1	  84
   1	  86
   1	  87
   1	  89
   1	  92
   1	  95
   1	  98
   1	 100
   1	 101
   1	 102
   1	 104
   1	 105
   1	 107
   1	 108
   1	 109
   1	 111
   1	 113
   1	 117
   1	 118
   2	   5
   2	   6
   2	   7
   2	   8
   2	  11
   2	  15
   2	  17
   2	  18
   2	  19
   2	  20
   2	  21
   2	  22
   2	  27
   2	  32
   2	  36
   2	  37
   2	  51
   2	  53
   2	  56
   2	  57
   2	  59
   2	  61
   2	  62
   2	  64
   2	  68
   2	  69
   2	  71
   2	  75
   2	  76
   2	  78
   2	  81
   2	  82
   2	  83
   2	  89
   2	  90
   2	  92
   2	  93
   2	  95
   2	  96
   2	  97
   2	  98
   2	 100
   2	 101
   2	 102
   2	 104
   2	 106
   2	 110
   2	 111
   2	 113
   2	 116
   2	 119
   3	   5
   3	   6
   3	   7
   3	   8
   3	  10
   3	  11
   3	  12
   3	  14
   3	  16
   3	  18
   3	  22
   3	  23
   3	  25
   3	  28
   3	  29
   3	  33
   3	  38
   3	  39
   3	  41
   3	  43
   3	  44
   3	  46
   3	  49
   3	  52
   3	  53
   3	  55
   3	  58
   3	  59
   3	  64
   3	  65
   3	  66
   3	  68
   3	  71
   3	  72
   3	  74
   3	  75
   3	  78
   3	  80
   3	  82
   3	  84
   3	  86
   3	  87
   3	  88
   3	  90
   3	  91
   3	  94
   3	  95
   3	  96
   3	  97
   3	 100
   3	 101
   3	 102
   3	 104
   3	 105
   3	 107
   3	 108
   3	 111
   3	 112
   3	 114
   3	 115
   3	 116
   3	 117
   3	 119
   4	   5
   4	   7
   4	   8
   4	   9
   4	  10
   4	  11
   4	  12
   4	  15
   4	  16
   4	  17
   4	  18
   4	  22
   4	  24
   4	  26
   4	  29
   4	  30
   4	  31
   4	  32
   4	  36
   4	  37
   4	  38
   4	  39
   4	  41
   4	  42
   4	  47
   4	  51
   4	  52
   4	  55
   4	  57
   4	  58
   4	  60
   4	  61
   4	  66
   4	  70
   4	  72
   4	  73
   4	  74
   4	  78
   4	  80
   4	  85
   4	  86
   4	  87
   4	  88
   4	  89
   4	  90
   4	  92
   4	  93
   4	  94
   4	  95
   4	  96
   4	  97
   4	 101
   4	 107
   4	 108
   4	 109
   4	 112
   4	 116
   4	 117
   4	 118
   4	 119
   5	   6
   5	   9
   5	  10
   5	  13
   5	  15
   5	  16
   5	  21
   5	  22
   5	  24
   5	  27
   5	  28
   5	  29
   5	  30
   5	  31
   5	  32
   5	  33
   5	  35
   5	  36
   5	  37
   5	  40
   5	  41
   5	  42
   5	  43
   5	  47
   5	  57
   5	  60
   5	  61
   5	  63
   5	  66
   5	  68
   5	  69
   5	  71
   5	  72
   5	  73
   5	  75
   5	  76
   5	  79
   5	  80
   5	  85
   5	  86
   5	  87
   5	  88
   5	  90
   5	  93
   5	  94
   5	  95
   5	  98
   5	  99
   5	 100
   5	 101
   5	 103
   5	 104
   5	 107
   5	 108
   5	 111
   5	 113
   5	 119
   6	   7
   6	   8
   6	   9
   6	  11
   6	  12
   6	  14
   6	  17
   6	  19
   6	  20
   6	  21
   6	  22
   6	  25
   6	  26
   6	  28
   6	  29
   6	  33
   6	  34
   6	  35
   6	  40
   6	  41
   6	  47
   6	  48
   6	  49
   6	  50
   6	  56
   6	  57
   6	  60
   6	  62
   6	  63
   6	  64
   6	  66
   6	  67
   6	  68
   6	  70
   6	  71
   6	  73
   6	  77
   6	  78
   6	  79
   6	  80
   6	  82
   6	  86
   6	  87
   6	  92
   6	  94
   6	  95
   6	  96
   6	  97
   6	  98
   6	  99
   6	 100
   6	 101
   6	 102
   6	 104
   6	 105
   6	 107
   6	 112
   6	 113
   6	 116
   7	   8
   7	   9
   7	  13
   7	  14
   7	  15
   7	  24
   7	  25
   7	  29
   7	  32
   7	  33
   7	  37
   7	  39
   7	  41
   7	  43
   7	  47
   7	  50
   7	  51
   7	  53
   7	  55
   7	  56
   7	  57
   7	  58
   7	  60
   7	  62
   7	  64
   7	  66
   7	  73
   7	  74
   7	  75
   7	  76
   7	  77
   7	  78
   7	  80
   7	  81
   7	  82
   7	  88
   7	  90
   7	  98
   7	 100
   7	 103
   7	 105
   7	 107
   7	 108
   7	 109
   7	 110
   7	 113
   7	 118
   8	   9
   8	  10
   8	  11
   8	  12
   8	  16
   8	  18
   8	  20
   8	  23
   8	  24
   8	  25
   8	  33
   8	  34
   8	  35
   8	  36
   8	  40
   8	  43
   8	  48
   8	  51
   8	  52
   8	  53
   8	  54
   8	  55
   8	  59
   8	  61
   8	  62
   8	  63
   8	  64
   8	  65
   8	  66
   8	  67
   8	  69
   8	  70
   8	  71
   8	  72
   8	  75
   8	  77
   8	  80
   8	  81
   8	  85
   8	  87
   8	  88
   8	  89
   8	  90
   8	  92
   8	  93
   8	  97
   8	  99
   8	 101
   8	 106
   8	 108
   8	 109
   8	 111
   8	 112
   8	 114
   8	 116
   8	 118
   9	  10
   9	  11
   9	  15
   9	  17
   9	  22
   9	  26
   9	  27
   9	  29
   9	  30
   9	  31
   9	  33
   9	  34
   9	  36
   9	  40
   9	  41
   9	  42
   9	  43
   9	  46
   9	  49
   9	  50
   9	  51
   9	  52
   9	  57
   9	  59
   9	  60
   9	  61
   9	  66
   9	  68
   9	  69
   9	  71
   9	  73
   9	  74
   9	  75
   9	  77
   9	  78
   9	  79
   9	  80
   9	  81
   9	  82
   9	  85
   9	  89
   9	  90
   9	  92
   9	  96
   9	  99
   9	 100
   9	 101
   9	 104
   9	 105
   9	 106
   9	 108
   9	 109
   9	 111
   9	 112
   9	 114
   9	 115
   9	 116
   9	 117
   9	 118
  10	  11
  10	  12
  10	  13
  10	  18
  10	  20
  10	  21
  10	  23
  10	  24
  10	  26
  10	  27
  10	  29
  10	  30
  10	  31
  10	  32
  10	  39
  10	  40
  10	  43
  10	  45
  10	  46
  10	  49
  10	  50
  10	  51
  10	  56
  10	  57
  10	  59
  10	  67
  10	  68
  10	  69
  10	  70
  10	  72
  10	  73
  10	  75
  10	  79
  10	  83
  10	  84
  10	  86
  10	  88
  10	  90
  10	  91
  10	  92
  10	  93
  10	  95
  10	  96
  10	 100
  10	 103
  10	 104
  10	 106
  10	 110
  10	 112
  10	 115
  10	 117
  10	 119
  11	  13
  11	  14
  11	  16
  11	  19
  11	  21
  11	  22
  11	  23
  11	  24
  11	  27
  11	  33
  11	  39
  11	  44
  11	  45
  11	  50
  11	  51
  11	  52
  11	  55
  11	  56
  11	  58
  11	  60
  11	  61
  11	  65
  11	  68
  11	  69
  11	  71
  11	  72
  11	  73
  11	  75
  11	  76
  11	  77
  11	  78
  11	  80
  11	  82
  11	  84
  11	  85
  11	  86
  11	  88
  11	  89
  11	  90
  11	  96
  11	  97
  11	  98
  11	 100
  11	 107
  11	 113
  11	 114
  11	 116
  11	 118
  11	 119
  12	  13
  12	  14
  12	  16
  12	  17
  12	  19
  12	  22
  12	  23
  12	  27
  12	  28
  12	  29
  12	  32
  12	  33
  12	  36
  12	  37
  12	  40
  12	  43
  12	  44
  12	  47
  12	  48
  12	  49
  12	  51
  12	  52
  12	  53
  12	  58
  12	  60
  12	  61
  12	  64
  12	  66
  12	  67
  12	  68
  12	  73
  12	  74
  12	  75
  12	  76
  12	  78
  12	  81
  12	  82
  12	  84
  12	  85
  12	  88
  12	  92
  12	  96
  12	  98
  12	  99
  12	 100
  12	 101
  12	 102
  12	 103
  12	 104
  12	 107
  12	 108
  12	 110
  12	 112
  12	 113
  12	 114
  12	 115
  12	 117
  13	  15
  13	  17
  13	  20
  13	  21
  13	  23
  13	  26
  13	  28
  13	  35
  13	  36
  13	  37
  13	  43
  13	  44
  13	  45
  13	  49
  13	  52
  13	  54
  13	  55
  13	  56
  13	  57
  13	  60
  13	  61
  13	  64
  13	  65
  13	  66
  13	  68
  13	  69
  13	  72
  13	  73
  13	  74
  13	  77
  13	  78
  13	  83
  13	  84
  13	  86
  13	  88
  13	  90
  13	  91
  13	  92
  13	  93
  13	  96
  13	  99
  13	 100
  13	 105
  13	 106
  13	 107
  13	 110
  13	 112
  13	 113
  13	 117
  13	 119
  14	  16
  14	  17
  14	  19
  14	  23
  14	  24
  14	  27
  14	  28
  14	  29
  14	  30
  14	  31
  14	  32
  14	  34
  14	  36
  14	  37
  14	  39
  14	  40
  14	  48
  14	  49
  14	  61
  14	  62
  14	  64
  14	  65
  14	  66
  14	  67
  14	  68
  14	  70
  14	  72
  14	  73
  14	  77
  14	  79
  14	  82
  14	  84
  14	  85
  14	  86
  14	  87
  14	  88
  14	  89
  14	  90
  14	  93
  14	  94
  14	  96
  14	  98
  14	  99
  14	 100
  14	 103
  14	 105
  14	 106
  14	 107
  14	 108
  14	 109
  14	 110
  14	 115
  14	 118
  15	  16
  15	  17
  15	  18
  15	  19
  15	  22
  15	  23
  15	  25
  15	  26
  15	  27
  15	  29
  15	  36
  15	  37
  15	  38
  15	  39
  15	  40
  15	  41
  15	  42
  15	  43
  15	  44
  15	  45
  15	  48
  15	  50
  15	  52
  15	  54
  15	  55
  15	  56
  15	  57
  15	  59
  15	  62
  15	  65
  15	  66
  15	  67
  15	  69
  15	  70
  15	  71
  15	  72
  15	  73
  15	  74
  15	  79
  15	  80
  15	  81
  15	  82
  15	  83
  15	  84
  15	  85
  15	  86
  15	  87
  15	  90
  15	  92
  15	  93
  15	  96
  15	  97
  15	 101
  15	 104
  15	 105
  15	 111
  15	 112
  15	 114
  15	 118
  15	 119
  16	  20
  16	  22
  16	  23
  16	  24
  16	  25
  16	  26
  16	  27
  16	  30
  16	  31
  16	  33
  16	  34
  16	  35
  16	  36
  16	  37
  16	  38
  16	  39
  16	  42
  16	  43
  16	  44
  16	  45
  16	  46
  16	  47
  16	  49
  16	  50
  16	  51
  16	  52
  16	  54
  16	  58
  16	  62
  16	  64
  16	  65
  16	  67
  16	  69
  16	  70
  16	  71
  16	  73
  16	  78
  16	  79
  16	  80
  16	  81
  16	  83
  16	  85
  16	  86
  16	  87
  16	  89
  16	  92
  16	  93
  16	  96
  16	  97
  16	  99
  16	 100
  16	 105
  16	 106
  16	 107
  16	 109
  16	 111
  16	 115
  16	 116
  16	 118
  17	  18
  17	  19
  17	  20
  17	  21
  17	  31
  17	  34
  17	  37
  17	  38
  17	  40
  17	  41
  17	  42
  17	  43
  17	  44
  17	  46
  17	  48
  17	  52
  17	  54
  17	  55
  17	  56
  17	  60
  17	  62
  17	  65
  17	  66
  17	  67
  17	  70
  17	  72
  17	  74
  17	  76
  17	  78
  17	  79
  17	  80
  17	  81
  17	  84
  17	  86
  17	  88
  17	  93
  17	  95
  17	 100
  17	 102
  17	 103
  17	 104
  17	 105
  17	 107
  17	 109
  17	 111
  17	 115
  18	  19
  18	  21
  18	  22
  18	  24
  18	  27
  18	  28
  18	  29
  18	  32
  18	  34
  18	  35
  18	  36
  18	  38
  18	  40
  18	  44
  18	  46
  18	  47
  18	  48
  18	  53
  18	  54
  18	  56
  18	  60
  18	  61
  18	  64
  18	  66
  18	  67
  18	  69
  18	  70
  18	  71
  18	  73
  18	  74
  18	  75
  18	  77
  18	  78
  18	  79
  18	  80
  18	  81
  18	  82
  18	  83
  18	  85
  18	  86
  18	  87
  18	  93
  18	  94
  18	  97
  18	 102
  18	 103
  18	 106
  18	 107
  18	 110
  18	 111
  18	 113
  18	 114
  18	 116
  18	 119
  19	  20
  19	  24
  19	  25
  19	  32
  19	  33
  19	  36
  19	  37
  19	  38
  19	  39
  19	  41
  19	  44
  19	  45
  19	  47
  19	  48
  19	  50
  19	  51
  19	  52
  19	  54
  19	  55
  19	  57
  19	  58
  19	  63
  19	  64
  19	  65
  19	  69
  19	  70
  19	  71
  19	  73
  19	  75
  19	  77
  19	  78
  19	  81
  19	  82
  19	  83
  19	  87
  19	  89
  19	  92
  19	  94
  19	  98
  19	  99
  19	 101
  19	 103
  19	 104
  19	 105
  19	 106
  19	 108
  19	 112
  19	 114
  19	 117
  19	 118
  20	  24
  20	  25
  20	  26
  20	  29
  20	  30
  20	  31
  20	  32
  20	  33
  20	  34
  20	  35
  20	  37
  20	  38
  20	  39
  20	  42
  20	  43
  20	  45
  20	  46
  20	  48
  20	  49
  20	  50
  20	  53
  20	  54
  20	  55
  20	  57
  20	  62
  20	  63
  20	  64
  20	  66
  20	  68
  20	  70
  20	  71
  20	  72
  20	  76
  20	  78
  20	  79
  20	  80
  20	  81
  20	  82
  20	  83
  20	  88
  20	  90
  20	  92
  20	  93
  20	  95
  20	  98
  20	  99
  20	 100
  20	 103
  20	 104
  20	 105
  20	 107
  20	 109
  20	 110
  20	 111
  20	 114
  20	 116
  20	 117
  20	 118
  21	  23
  21	  24
  21	  25
  21	  26
  21	  29
  21	  32
  21	  33
  21	  34
  21	  37
  21	  39
  21	  40
  21	  41
  21	  43
  21	  45
  21	  46
  21	  48
  21	  49
  21	  51
  21	  52
  21	  54
  21	  55
  21	  59
  21	  60
  21	  61
  21	  64
  21	  65
  21	  67
  21	  68
  21	  69
  21	  72
  21	  75
  21	  77
  21	  78
  21	  83
  21	  85
  21	  88
  21	  94
  21	  96
  21	  98
  21	 100
  21	 102
  21	 104
  21	 105
  21	 106
  21	 107
  21	 112
  21	 114
  21	 115
  21	 118
  22	  24
  22	  26
  22	  27
  22	  29
  22	  31
  22	  32
  22	  35
  22	  36
  22	  37
  22	  42
  22	  43
  22	  45
  22	  48
  22	  51
  22	  54
  22	  55
  22	  56
  22	  57
  22	  61
  22	  68
  22	  75
  22	  76
  22	  77
  22	  79
  22	  81
  22	  82
  22	  84
  22	  85
  22	  86
  22	  89
  22	  90
  22	  91
  22	  92
  22	  94
  22	  96
  22	  98
  22	  99
  22	 102
  22	 104
  22	 107
  22	 109
  22	 114
  23	  25
  23	  27
  23	  29
  23	  30
  23	  35
  23	  36
  23	  42
  23	  44
  23	  45
  23	  47
  23	  51
  23	  53
  23	  54
  23	  56
  23	  57
  23	  60
  23	  61
  23	  63
  23	  65
  23	  66
  23	  67
  23	  68
  23	  69
  23	  70
  23	  71
  23	  72
  23	  73
  23	  76
  23	  79
  23	  81
  23	  85
  23	  88
  23	  92
  23	  93
  23	  95
  23	  96
  23	  97
  23	 101
  23	 102
  23	 104
  23	 110
  23	 113
  23	 114
  23	 115
  24	  27
  24	  30
  24	  32
  24	  35
  24	  37
  24	  39
  24	  41
  24	  42
  24	  43
  24	  46
  24	  47
  24	  54
  24	  56
  24	  57
  24	  58
  24	  61
  24	  62
  24	  63
  24	  64
  24	  67
  24	  68
  24	  69
  24	  71
  24	  74
  24	  75
  24	  76
  24	  77
  24	  79
  24	  80
  24	  82
  24	  83
  24	  87
  24	  89
  24	  91
  24	  94
  24	  99
  24	 102
  24	 103
  24	 104
  24	 106
  24	 110
  24	 111
  24	 112
  24	 113
  24	 119
  25	  26
  25	  32
  25	  35
  25	  38
  25	  41
  25	  46
  25	  47
  25	  48
  25	  54
  25	  55
  25	  58
  25	  60
  25	  61
  25	  62
  25	  63
  25	  64
  25	  65
  25	  66
  25	  68
  25	  71
  25	  73
  25	  76
  25	  77
  25	  79
  25	  84
  25	  85
  25	  90
  25	  92
  25	  93
  25	  94
  25	  95
  25	  99
  25	 100
  25	 101
  25	 103
  25	 104
  25	 106
  25	 107
  25	 108
  25	 110
  25	 112
  25	 113
  25	 114
  25	 117
  26	  27
  26	  32
  26	  35
  26	  36
  26	  38
  26	  39
  26	  42
  26	  44
  26	  45
  26	  46
  26	  50
  26	  52
  26	  53
  26	  56
  26	  58
  26	  69
  26	  72
  26	  76
  26	  78
  26	  79
  26	  81
  26	  82
  26	  84
  26	  86
  26	  87
  26	  88
  26	  89
  26	  93
  26	  94
  26	  95
  26	  97
  26	  98
  26	  99
  26	 100
  26	 102
  26	 104
  26	 105
  26	 106
  26	 107
  26	 108
  26	 109
  26	 110
  26	 112
  26	 113
  26	 115
  26	 116
  26	 118
  26	 119
  27	  28
  27	  32
  27	  34
  27	  35
  27	  37
  27	  38
  27	  40
  27	  41
  27	  43
  27	  45
  27	  46
  27	  47
  27	  50
  27	  52
  27	  53
  27	  55
  27	  56
  27	  57
  27	  68
  27	  70
  27	  72
  27	  76
  27	  79
  27	  81
  27	  82
  27	  83
  27	  84
  27	  86
  27	  87
  27	  89
  27	  90
  27	  91
  27	  92
  27	  93
  27	  95
  27	  97
  27	  98
  27	  99
  27	 100
  27	 101
  27	 103
  27	 105
  27	 106
  27	 107
  27	 108
  27	 109
  27	 111
  27	 112
  27	 113
  27	 118
  28	  29
  28	  30
  28	  32
  28	  35
  28	  36
  28	  37
  28	  39
  28	  40
  28	  42
  28	  43
  28	  45
  28	  46
  28	  47
  28	  48
  28	  50
  28	  52
  28	  53
  28	  54
  28	  55
  28	  56
  28	  58
  28	  59
  28	  61
  28	  62
  28	  63
  28	  65
  28	  66
  28	  68
  28	  69
  28	  73
  28	  74
  28	  75
  28	  77
  28	  78
  28	  80
  28	  81
  28	  83
  28	  87
  28	  88
  28	  90
  28	  91
  28	  92
  28	  93
  28	  94
  28	  97
  28	 103
  28	 104
  28	 106
  28	 107
  28	 114
  28	 117
  28	 118
  29	  30
  29	  31
  29	  32
  29	  35
  29	  37
  29	  38
  29	  39
  29	  40
  29	  42
  29	  43
  29	  47
  29	  48
  29	  50
  29	  52
  29	  53
  29	  57
  29	  58
  29	  60
  29	  62
  29	  63
  29	  64
  29	  66
  29	  68
  29	  69
  29	  70
  29	  71
  29	  72
  29	  75
  29	  76
  29	  80
  29	  81
  29	  88
  29	  93
  29	  95
  29	  97
  29	  99
  29	 100
  29	 102
  29	 103
  29	 104
  29	 105
  29	 108
  29	 111
  29	 112
  29	 115
  29	 117
  29	 119
  30	  33
  30	  34
  30	  36
  30	  37
  30	  40
  30	  41
  30	  42
  30	  44
  30	  45
  30	  47
  30	  49
  30	  50
  30	  53
  30	  56
  30	  57
  30	  59
  30	  65
  30	  68
  30	  70
  30	  72
  30	  73
  30	  75
  30	  78
  30	  80
  30	  81
  30	  82
  30	  84
  30	  85
  30	  86
  30	  88
  30	  89
  30	  93
  30	  94
  30	  95
  30	  96
  30	  97
  30	  99
  30	 102
  30	 105
  30	 107
  30	 111
  30	 112
  30	 116
  30	 118
  30	 119
  31	  32
  31	  33
  31	  34
  31	  36
  31	  37
  31	  38
  31	  40
  31	  42
  31	  43
  31	  44
  31	  45
  31	  49
  31	  52
  31	  53
  31	  56
  31	  59
  31	  60
  31	  61
  31	  63
  31	  64
  31	  67
  31	  69
  31	  73
  31	  75
  31	  78
  31	  79
  31	  80
  31	  84
  31	  85
  31	  87
  31	  91
  31	  95
  31	  96
  31	  98
  31	 100
  31	 103
  31	 108
  31	 112
  31	 113
  31	 115
  31	 119
  32	  33
  32	  35
  32	  36
  32	  37
  32	  40
  32	  41
  32	  45
  32	  46
  32	  48
  32	  49
  32	  51
  32	  53
  32	  55
  32	  56
  32	  60
  32	  61
  32	  62
  32	  65
  32	  66
  32	  69
  32	  71
  32	  75
  32	  76
  32	  77
  32	  81
  32	  82
  32	  83
  32	  85
  32	  86
  32	  88
  32	  90
  32	  94
  32	  95
  32	  96
  32	  97
  32	  98
  32	 100
  32	 101
  32	 104
  32	 106
  32	 107
  32	 108
  32	 109
  32	 110
  32	 111
  32	 116
  32	 118
  33	  37
  33	  40
  33	  43
  33	  44
  33	  45
  33	  46
  33	  47
  33	  48
  33	  50
  33	  54
  33	  55
  33	  57
  33	  63
  33	  64
  33	  66
  33	  69
  33	  70
  33	  71
  33	  73
  33	  75
  33	  77
  33	  78
  33	  79
  33	  82
  33	  83
  33	  87
  33	  88
  33	  91
  33	  92
  33	  93
  33	  94
  33	  95
  33	  99
  33	 100
  33	 102
  33	 104
  33	 105
  33	 107
  33	 108
  33	 111
  33	 113
  33	 114
  33	 115
  33	 116
  33	 117
  34	  35
  34	  36
  34	  37
  34	  38
  34	  40
  34	  42
  34	  44
  34	  47
  34	  53
  34	  54
  34	  56
  34	  58
  34	  59
  34	  60
  34	  63
  34	  64
  34	  65
  34	  66
  34	  68
  34	  69
  34	  70
  34	  71
  34	  74
  34	  75
  34	  76
  34	  79
  34	  80
  34	  81
  34	  83
  34	  84
  34	  85
  34	  92
  34	  93
  34	  95
  34	  96
  34	  97
  34	  98
  34	  99
  34	 100
  34	 101
  34	 103
  34	 108
  34	 109
  34	 112
  34	 115
  34	 116
  34	 118
  34	 119
  35	  36
  35	  38
  35	  40
  35	  41
  35	  42
  35	  43
  35	  44
  35	  45
  35	  46
  35	  49
  35	  50
  35	  51
  35	  55
  35	  57
  35	  59
  35	  60
  35	  61
  35	  63
  35	  64
  35	  65
  35	  68
  35	  77
  35	  80
  35	  82
  35	  83
  35	  84
  35	  85
  35	  87
  35	  91
  35	  95
  35	  98
  35	 100
  35	 101
  35	 103
  35	 106
  35	 107
  35	 108
  35	 109
  35	 110
  35	 113
  35	 115
  35	 117
  36	  37
  36	  38
  36	  39
  36	  40
  36	  42
  36	  44
  36	  45
  36	  46
  36	  47
  36	  48
  36	  49
  36	  50
  36	  51
  36	  56
  36	  57
  36	  59
  36	  62
  36	  63
  36	  65
  36	  66
  36	  67
  36	  71
  36	  72
  36	  73
  36	  74
  36	  78
  36	  79
  36	  80
  36	  81
  36	  82
  36	  83
  36	  85
  36	  89
  36	  90
  36	  91
  36	  92
  36	  93
  36	  94
  36	  97
  36	  99
  36	 101
  36	 102
  36	 105
  36	 106
  36	 108
  36	 109
  36	 110
  36	 111
  36	 112
  36	 117
  36	 118
  37	  39
  37	  43
  37	  44
  37	  45
  37	  46
  37	  48
  37	  51
  37	  52
  37	  53
  37	  56
  37	  59
  37	  60
  37	  61
  37	  66
  37	  67
  37	  68
  37	  71
  37	  72
  37	  73
  37	  76
  37	  77
  37	  83
  37	  84
  37	  86
  37	  87
  37	  88
  37	  90
  37	  94
  37	  95
  37	  96
  37	  98
  37	  99
  37	 100
  37	 102
  37	 107
  37	 112
  37	 115
  37	 116
  37	 117
  38	  40
  38	  42
  38	  43
  38	  47
  38	  49
  38	  51
  38	  52
  38	  54
  38	  55
  38	  57
  38	  58
  38	  62
  38	  66
  38	  68
  38	  70
  38	  73
  38	  74
  38	  75
  38	  77
  38	  80
  38	  81
  38	  82
  38	  84
  38	  85
  38	  86
  38	  88
  38	  93
  38	  94
  38	  96
  38	  97
  38	 101
  38	 104
  38	 109
  38	 112
  38	 113
  38	 116
  38	 117
  38	 119
  39	  41
  39	  42
  39	  43
  39	  45
  39	  46
  39	  50
  39	  51
  39	  52
  39	  53
  39	  55
  39	  57
  39	  59
  39	  60
  39	  61
  39	  63
  39	  66
  39	  67
  39	  69
  39	  72
  39	  74
  39	  76
  39	  77
  39	  80
  39	  81
  39	  83
  39	  87
  39	  89
  39	  90
  39	  91
  39	  93
  39	  94
  39	  95
  39	  97
  39	  99
  39	 100
  39	 101
  39	 102
  39	 103
  39	 107
  39	 109
  39	 110
  39	 111
  39	 112
  39	 113
  39	 115
  39	 117
  39	 119
  40	  41
  40	  42
  40	  47
  40	  48
  40	  50
  40	  54
  40	  56
  40	  58
  40	  59
  40	  60
  40	  61
  40	  67
  40	  68
  40	  71
  40	  72
  40	  74
  40	  76
  40	  77
  40	  79
  40	  81
  40	  85
  40	  86
  40	  88
  40	  89
  40	  90
  40	  91
  40	  93
  40	  94
  40	  95
  40	  97
  40	  98
  40	  99
  40	 101
  40	 105
  40	 106
  40	 107
  40	 110
  40	 111
  40	 112
  40	 113
  40	 114
  40	 115
  40	 116
  40	 118
  40	 119
  41	  44
  41	  46
  41	  48
  41	  50
  41	  52
  41	  54
  41	  56
  41	  57
  41	  60
  41	  61
  41	  62
  41	  63
  41	  66
  41	  67
  41	  68
  41	  69
  41	  73
  41	  75
  41	  77
  41	  79
  41	  82
  41	  85
  41	  86
  41	  87
  41	  88
  41	  95
  41	  96
  41	  97
  41	  99
  41	 103
  41	 105
  41	 106
  41	 109
  41	 113
  41	 114
  41	 115
  41	 116
  41	 118
  42	  44
  42	  46
  42	  47
  42	  51
  42	  52
  42	  53
  42	  54
  42	  56
  42	  59
  42	  60
  42	  65
  42	  66
  42	  67
  42	  72
  42	  73
  42	  76
  42	  77
  42	  80
  42	  86
  42	  87
  42	  88
  42	  91
  42	  92
  42	 102
  42	 104
  42	 105
  42	 106
  42	 109
  42	 110
  42	 115
  42	 117
  43	  45
  43	  46
  43	  48
  43	  51
  43	  58
  43	  59
  43	  61
  43	  62
  43	  63
  43	  65
  43	  67
  43	  68
  43	  69
  43	  70
  43	  71
  43	  73
  43	  74
  43	  77
  43	  82
  43	  84
  43	  85
  43	  88
  43	  89
  43	  91
  43	  92
  43	  94
  43	  95
  43	  98
  43	 100
  43	 101
  43	 102
  43	 103
  43	 107
  43	 108
  43	 109
  43	 112
  43	 113
  43	 116
  43	 117
  43	 119
  44	  45
  44	  46
  44	  47
  44	  48
  44	  50
  44	  51
  44	  55
  44	  58
  44	  59
  44	  60
  44	  62
  44	  65
  44	  68
  44	  69
  44	  71
  44	  72
  44	  75
  44	  77
  44	  78
  44	  79
  44	  81
  44	  82
  44	  86
  44	  91
  44	  92
  44	  94
  44	  97
  44	  98
  44	  99
  44	 103
  44	 105
  44	 106
  44	 107
  44	 109
  44	 113
  44	 114
  44	 115
  44	 116
  44	 119
  45	  47
  45	  51
  45	  54
  45	  58
  45	  59
  45	  60
  45	  61
  45	  62
  45	  66
  45	  67
  45	  70
  45	  74
  45	  75
  45	  77
  45	  79
  45	  81
  45	  82
  45	  83
  45	  87
  45	  89
  45	  90
  45	  94
  45	  96
  45	  99
  45	 100
  45	 101
  45	 102
  45	 107
  45	 112
  45	 113
  45	 116
  46	  49
  46	  52
  46	  53
  46	  56
  46	  59
  46	  61
  46	  62
  46	  63
  46	  64
  46	  65
  46	  66
  46	  69
  46	  70
  46	  74
  46	  77
  46	  79
  46	  80
  46	  81
  46	  82
  46	  84
  46	  87
  46	  88
  46	  89
  46	  92
  46	  94
  46	 101
  46	 104
  46	 105
  46	 108
  46	 112
  46	 114
  46	 115
  46	 117
  47	  48
  47	  49
  47	  50
  47	  52
  47	  54
  47	  56
  47	  57
  47	  59
  47	  61
  47	  62
  47	  65
  47	  70
  47	  71
  47	  72
  47	  75
  47	  76
  47	  77
  47	  79
  47	  80
  47	  81
  47	  82
  47	  83
  47	  84
  47	  88
  47	  89
  47	  90
  47	  92
  47	  93
  47	  94
  47	  96
  47	  97
  47	  98
  47	  99
  47	 101
  47	 104
  47	 105
  47	 106
  47	 108
  47	 110
  47	 114
  47	 115
  47	 118
  48	  52
  48	  54
  48	  58
  48	  59
  48	  60
  48	  61
  48	  64
  48	  65
  48	  67
  48	  68
  48	  69
  48	  70
  48	  71
  48	  74
  48	  75
  48	  76
  48	  77
  48	  80
  48	  81
  48	  84
  48	  85
  48	  86
  48	  88
  48	  93
  48	  94
  48	  95
  48	  96
  48	  97
  48	  98
  48	  99
  48	 100
  48	 101
  48	 102
  48	 105
  48	 108
  48	 109
  48	 112
  48	 113
  48	 114
  48	 115
  48	 117
  48	 118
  49	  51
  49	  54
  49	  55
  49	  56
  49	  58
  49	  60
  49	  62
  49	  65
  49	  66
  49	  68
  49	  70
  49	  71
  49	  72
  49	  73
  49	  74
  49	  76
  49	  78
  49	  82
  49	  84
  49	  89
  49	  90
  49	  92
  49	  95
  49	  96
  49	  99
  49	 100
  49	 104
  49	 105
  49	 106
  49	 109
  49	 111
  49	 117
  49	 118
  49	 119
  50	  51
  50	  53
  50	  56
  50	  57
  50	  60
  50	  62
  50	  65
  50	  67
  50	  70
  50	  73
  50	  75
  50	  79
  50	  83
  50	  84
  50	  86
  50	  89
  50	  92
  50	  96
  50	  97
  50	  98
  50	  99
  50	 100
  50	 103
  50	 106
  50	 108
  50	 109
  50	 110
  50	 115
  50	 117
  50	 118
  51	  52
  51	  53
  51	  54
  51	  61
  51	  62
  51	  63
  51	  64
  51	  68
  51	  69
  51	  70
  51	  73
  51	  75
  51	  76
  51	  78
  51	  79
  51	  80
  51	  81
  51	  82
  51	  83
  51	  84
  51	  87
  51	  88
  51	  89
  51	  90
  51	  93
  51	  94
  51	  95
  51	  96
  51	  99
  51	 104
  51	 106
  51	 108
  51	 111
  51	 112
  51	 113
  51	 117
  51	 118
  51	 119
  52	  53
  52	  54
  52	  56
  52	  58
  52	  59
  52	  60
  52	  62
  52	  64
  52	  68
  52	  69
  52	  76
  52	  78
  52	  82
  52	  83
  52	  85
  52	  86
  52	  90
  52	  93
  52	  94
  52	  95
  52	  96
  52	  99
  52	 101
  52	 102
  52	 104
  52	 107
  52	 109
  52	 110
  52	 112
  52	 115
  52	 116
  52	 118
  53	  55
  53	  57
  53	  58
  53	  60
  53	  62
  53	  63
  53	  64
  53	  66
  53	  71
  53	  72
  53	  74
  53	  75
  53	  78
  53	  80
  53	  81
  53	  82
  53	  83
  53	  84
  53	  85
  53	  87
  53	  90
  53	  97
  53	  99
  53	 100
  53	 101
  53	 105
  53	 106
  53	 108
  53	 111
  53	 112
  53	 113
  53	 114
  53	 115
  53	 117
  53	 118
  53	 119
  54	  55
  54	  59
  54	  60
  54	  61
  54	  62
  54	  63
  54	  65
  54	  66
  54	  68
  54	  70
  54	  76
  54	  77
  54	  79
  54	  85
  54	  86
  54	  87
  54	  91
  54	  93
  54	  95
  54	  96
  54	  97
  54	  99
  54	 100
  54	 102
  54	 103
  54	 104
  54	 108
  54	 112
  54	 115
  54	 117
  55	  59
  55	  67
  55	  69
  55	  70
  55	  73
  55	  75
  55	  76
  55	  77
  55	  82
  55	  83
  55	  84
  55	  87
  55	  90
  55	  91
  55	  92
  55	  95
  55	  97
  55	  98
  55	  99
  55	 101
  55	 103
  55	 104
  55	 105
  55	 108
  55	 110
  55	 111
  55	 112
  55	 113
  55	 114
  55	 116
  55	 118
  56	  59
  56	  63
  56	  64
  56	  66
  56	  69
  56	  70
  56	  72
  56	  73
  56	  75
  56	  79
  56	  81
  56	  85
  56	  92
  56	  94
  56	  96
  56	  97
  56	  98
  56	  99
  56	 100
  56	 101
  56	 103
  56	 104
  56	 105
  56	 106
  56	 110
  56	 111
  56	 112
  56	 116
  57	  59
  57	  60
  57	  61
  57	  62
  57	  63
  57	  67
  57	  68
  57	  69
  57	  71
  57	  73
  57	  76
  57	  77
  57	  79
  57	  80
  57	  81
  57	  84
  57	  88
  57	  91
  57	  92
  57	  95
  57	  98
  57	 100
  57	 101
  57	 102
  57	 103
  57	 104
  57	 105
  57	 108
  57	 109
  57	 110
  57	 111
  57	 113
  57	 115
  57	 117
  58	  59
  58	  60
  58	  61
  58	  62
  58	  65
  58	  66
  58	  68
  58	  71
  58	  72
  58	  79
  58	  86
  58	  87
  58	  92
  58	  95
  58	  97
  58	 104
  58	 105
  58	 107
  58	 111
  58	 112
  58	 114
  58	 115
  59	  64
  59	  65
  59	  66
  59	  67
  59	  68
  59	  70
  59	  71
  59	  74
  59	  76
  59	  77
  59	  80
  59	  82
  59	  85
  59	  86
  59	  90
  59	  94
  59	  95
  59	  97
  59	  99
  59	 100
  59	 101
  59	 102
  59	 103
  59	 104
  59	 113
  59	 114
  59	 115
  59	 119
  60	  65
  60	  66
  60	  67
  60	  68
  60	  72
  60	  74
  60	  75
  60	  81
  60	  82
  60	  83
  60	  84
  60	  85
  60	  87
  60	  88
  60	  91
  60	  92
  60	  93
  60	  97
  60	  98
  60	 101
  60	 103
  60	 104
  60	 107
  60	 109
  60	 113
  60	 115
  60	 117
  60	 119
  61	  63
  61	  64
  61	  67
  61	  68
  61	  69
  61	  70
  61	  71
  61	  73
  61	  75
  61	  76
  61	  78
  61	  82
  61	  84
  61	  85
  61	  86
  61	  89
  61	  90
  61	  91
  61	  92
  61	  94
  61	  97
  61	 102
  61	 103
  61	 104
  61	 106
  61	 107
  61	 108
  61	 109
  61	 110
  61	 113
  61	 115
  61	 117
  61	 118
  61	 119
  62	  64
  62	  67
  62	  70
  62	  72
  62	  73
  62	  74
  62	  75
  62	  82
  62	  83
  62	  87
  62	  96
  62	  97
  62	 101
  62	 102
  62	 104
  62	 105
  62	 108
  62	 112
  62	 115
  62	 116
  62	 118
  63	  64
  63	  65
  63	  66
  63	  67
  63	  70
  63	  71
  63	  73
  63	  74
  63	  76
  63	  77
  63	  78
  63	  80
  63	  82
  63	  83
  63	  84
  63	  87
  63	  88
  63	  89
  63	  93
  63	  96
  63	  97
  63	 101
  63	 103
  63	 105
  63	 106
  63	 107
  63	 108
  63	 110
  63	 113
  63	 114
  63	 115
  63	 117
  63	 118
  63	 119
  64	  65
  64	  66
  64	  67
  64	  68
  64	  70
  64	  74
  64	  75
  64	  76
  64	  77
  64	  78
  64	  81
  64	  82
  64	  83
  64	  84
  64	  88
  64	  89
  64	  92
  64	  93
  64	  94
  64	  95
  64	  99
  64	 100
  64	 101
  64	 102
  64	 103
  64	 105
  64	 107
  64	 109
  64	 110
  64	 111
  64	 112
  64	 113
  64	 114
  64	 115
  64	 116
  64	 117
  64	 118
  64	 119
  65	  66
  65	  67
  65	  68
  65	  69
  65	  73
  65	  75
  65	  81
  65	  82
  65	  83
  65	  84
  65	  85
  65	  86
  65	  87
  65	  89
  65	  90
  65	  94
  65	  95
  65	  96
  65	  97
  65	  99
  65	 100
  65	 101
  65	 102
  65	 104
  65	 106
  65	 107
  65	 112
  65	 113
  65	 114
  65	 116
  65	 118
  65	 119
  66	  67
  66	  68
  66	  75
  66	  76
  66	  77
  66	  79
  66	  80
  66	  81
  66	  83
  66	  84
  66	  85
  66	  87
  66	  89
  66	  91
  66	  94
  66	  99
  66	 100
  66	 101
  66	 102
  66	 107
  66	 108
  66	 110
  66	 113
  66	 116
  66	 117
  67	  68
  67	  69
  67	  71
  67	  73
  67	  81
  67	  84
  67	  85
  67	  86
  67	  87
  67	  89
  67	  92
  67	  93
  67	  96
  67	 100
  67	 101
  67	 102
  67	 103
  67	 105
  67	 106
  67	 107
  67	 113
  67	 114
  67	 116
  67	 117
  67	 118
  67	 119
  68	  70
  68	  72
  68	  73
  68	  75
  68	  79
  68	  80
  68	  82
  68	  83
  68	  84
  68	  85
  68	  89
  68	  90
  68	  93
  68	  94
  68	  96
  68	  98
  68	  99
  68	 100
  68	 101
  68	 103
  68	 104
  68	 106
  68	 107
  68	 108
  68	 109
  68	 111
  68	 112
  68	 114
  68	 115
  68	 118
  68	 119
  69	  70
  69	  73
  69	  76
  69	  77
  69	  78
  69	  79
  69	  81
  69	  85
  69	  86
  69	  87
  69	  89
  69	  92
  69	  94
  69	  95
  69	  96
  69	 101
  69	 103
  69	 104
  69	 109
  69	 111
  69	 112
  69	 113
  69	 115
  69	 116
  69	 117
  69	 118
  70	  71
  70	  72
  70	  73
  70	  74
  70	  75
  70	  76
  70	  77
  70	  78
  70	  84
  70	  86
  70	  88
  70	  89
  70	  90
  70	  91
  70	  93
  70	  97
  70	  98
  70	 100
  70	 101
  70	 102
  70	 104
  70	 105
  70	 108
  70	 109
  70	 112
  70	 113
  70	 115
  70	 116
  70	 118
  70	 119
  71	  72
  71	  75
  71	  76
  71	  77
  71	  78
  71	  82
  71	  83
  71	  91
  71	  92
  71	  96
  71	 101
  71	 104
  71	 106
  71	 108
  71	 109
  71	 110
  71	 111
  71	 112
  71	 113
  71	 114
  71	 115
  71	 118
  72	  74
  72	  76
  72	  78
  72	  79
  72	  80
  72	  85
  72	  88
  72	  89
  72	  90
  72	  92
  72	  95
  72	  96
  72	  99
  72	 102
  72	 104
  72	 107
  72	 108
  72	 109
  72	 110
  72	 112
  72	 113
  72	 114
  72	 117
  72	 118
  73	  75
  73	  78
  73	  80
  73	  87
  73	  88
  73	  91
  73	  96
  73	  98
  73	  99
  73	 101
  73	 102
  73	 104
  73	 107
  73	 108
  73	 109
  73	 112
  73	 116
  73	 117
  73	 118
  73	 119
  74	  76
  74	  78
  74	  79
  74	  81
  74	  82
  74	  84
  74	  85
  74	  86
  74	  88
  74	  91
  74	  92
  74	  94
  74	  95
  74	  96
  74	 100
  74	 102
  74	 106
  74	 107
  74	 109
  74	 110
  74	 111
  74	 113
  74	 114
  74	 115
  75	  77
  75	  79
  75	  81
  75	  83
  75	  86
  75	  87
  75	  88
  75	  90
  75	  92
  75	  94
  75	  95
  75	  96
  75	  97
  75	  99
  75	 101
  75	 106
  75	 107
  75	 113
  75	 114
  75	 117
  75	 118
  76	  77
  76	  78
  76	  81
  76	  84
  76	  85
  76	  86
  76	  87
  76	  88
  76	  89
  76	  94
  76	  95
  76	  99
  76	 101
  76	 102
  76	 103
  76	 105
  76	 106
  76	 108
  76	 111
  76	 113
  76	 114
  76	 115
  76	 116
  76	 117
  77	  78
  77	  82
  77	  85
  77	  87
  77	  91
  77	  93
  77	  94
  77	  95
  77	  96
  77	  97
  77	  99
  77	 104
  77	 105
  77	 106
  77	 107
  77	 108
  77	 110
  77	 111
  77	 112
  77	 115
  77	 117
  77	 118
  77	 119
  78	  81
  78	  82
  78	  92
  78	  93
  78	  94
  78	  95
  78	  98
  78	 102
  78	 103
  78	 107
  78	 109
  78	 113
  78	 114
  78	 117
  78	 118
  79	  80
  79	  81
  79	  85
  79	  91
  79	  94
  79	  95
  79	  96
  79	  97
  79	  98
  79	 100
  79	 102
  79	 103
  79	 110
  79	 111
  79	 112
  79	 113
  79	 115
  79	 116
  79	 118
  80	  81
  80	  82
  80	  89
  80	  91
  80	  92
  80	  93
  80	  97
  80	 100
  80	 103
  80	 104
  80	 105
  80	 108
  80	 109
  80	 110
  80	 112
  80	 114
  80	 116
  80	 117
  81	  82
  81	  87
  81	  90
  81	  94
  81	  95
  81	  96
  81	 100
  81	 101
  81	 104
  81	 105
  81	 106
  81	 107
  81	 109
  81	 110
  81	 113
  81	 114
  81	 115
  81	 118
  81	 119
  82	  85
  82	  86
  82	  88
  82	  89
  82	  91
  82	  92
  82	  95
  82	  96
  82	  97
  82	  99
  82	 100
  82	 101
  82	 102
  82	 103
  82	 105
  82	 107
  82	 108
  82	 111
  82	 112
  82	 113
  82	 114
  82	 116
  82	 119
  83	  84
  83	  85
  83	  89
  83	  95
  83	  96
  83	  98
  83	 104
  83	 105
  83	 106
  83	 109
  83	 112
  83	 115
  84	  85
  84	  86
  84	  87
  84	  88
  84	  89
  84	  91
  84	  93
  84	  94
  84	  96
  84	  97
  84	  98
  84	  99
  84	 100
  84	 102
  84	 103
  84	 104
  84	 105
  84	 106
  84	 107
  84	 108
  84	 110
  84	 111
  84	 112
  84	 118
  85	  90
  85	  91
  85	  94
  85	  95
  85	  96
  85	  97
  85	  99
  85	 100
  85	 101
  85	 103
  85	 104
  85	 105
  85	 112
  85	 118
  85	 119
  86	  87
  86	  89
  86	  90
  86	  91
  86	  92
  86	  95
  86	  99
  86	 102
  86	 104
  86	 105
  86	 106
  86	 108
  86	 113
  86	 116
  86	 117
  87	  88
  87	  90
  87	  91
  87	  93
  87	  95
  87	  97
  87	  98
  87	 102
  87	 103
  87	 111
  87	 112
  87	 115
  87	 116
  87	 118
  88	  89
  88	  90
  88	  92
  88	  95
  88	  99
  88	 101
  88	 102
  88	 106
  88	 107
  88	 109
  88	 113
  88	 119
  89	  91
  89	  94
  89	  96
  89	  97
  89	 102
  89	 103
  89	 104
  89	 107
  89	 108
  89	 110
  89	 117
  90	  92
  90	  93
  90	  97
  90	  99
  90	 101
  90	 107
  90	 109
  90	 111
  90	 113
  90	 116
  90	 118
  90	 119
  91	  94
  91	  96
  91	 100
  91	 106
  91	 107
  91	 111
  91	 114
  91	 116
  91	 117
  91	 119
  92	  93
  92	  95
  92	  96
  92	  98
  92	  99
  92	 104
  92	 105
  92	 106
  92	 107
  92	 108
  92	 109
  92	 112
  92	 117
  92	 119
  93	  94
  93	  95
  93	  96
  93	  97
  93	  98
  93	  99
  93	 100
  93	 102
  93	 104
  93	 108
  93	 110
  93	 114
  93	 115
  93	 116
  93	 118
  94	  95
  94	  96
  94	  97
  94	  98
  94	  99
  94	 104
  94	 105
  94	 109
  94	 111
  94	 112
  94	 113
  94	 114
  94	 117
  94	 119
  95	  96
  95	  97
  95	  99
  95	 105
  95	 107
  95	 110
  95	 113
  95	 119
  96	  97
  96	  99
  96	 103
  96	 104
  96	 105
  96	 106
  96	 109
  96	 110
  96	 111
  96	 112
  96	 114
  96	 115
  96	 118
  96	 119
  97	  99
  97	 103
  97	 104
  97	 105
  97	 106
  97	 107
  97	 108
  97	 109
  97	 113
  97	 114
  97	 116
  97	 118
  97	 119
  98	 100
  98	 101
  98	 102
  98	 104
  98	 105
  98	 107
  98	 111
  98	 114
  98	 115
  98	 118
  99	 100
  99	 102
  99	 105
  99	 106
  99	 107
  99	 111
  99	 112
  99	 114
  99	 115
  99	 119
 100	 101
 100	 102
 100	 104
 100	 105
 100	 109
 100	 111
 100	 113
 100	 115
 100	 118
 101	 102
 101	 103
 101	 104
 101	 106
 101	 107
 101	 108
 101	 110
 101	 111
 101	 112
 101	 114
 101	 115
 101	 116
 101	 117
 101	 118
 102	 103
 102	 106
 102	 107
 102	 108
 102	 110
 102	 111
 102	 112
 102	 113
 102	 114
 102	 115
 102	 118
 102	 119
 103	 105
 103	 107
 103	 111
 103	 112
 103	 113
 103	 117
 103	 118
 104	 108
 104	 109
 104	 112
 104	 113
 104	 114
 104	 115
 104	 117
 105	 106
 105	 114
 105	 116
 105	 117
 105	 119
 106	 107
 106	 108
 106	 110
 106	 114
 106	 115
 106	 117
 106	 118
 107	 108
 107	 110
 107	 111
 107	 115
 108	 109
 108	 110
 108	 111
 108	 113
 108	 114
 108	 115
 108	 116
 109	 110
 109	 111
 109	 114
 109	 119
 110	 116
 111	 112
 111	 113
 111	 114
 111	 117
 112	 115
 112	 118
 113	 114
 113	 115
 113	 116
 113	 117
 113	 118
 113	 119
 114	 115
 116	 119
;
